! B3LYP D4 def2-TZVP VeryTightSCF

%pal
   nprocs 8
end

%maxcore 9000

%geom
   MaxIter 600
end

* xyz 0 1
O       -3.590911000      3.401148000      0.030431000
H       -3.400145000      2.457871000     -0.097306000
H       -4.003159000      3.691935000     -0.788505000
O       -2.924553035   0.581993463   -0.124925876
H       -1.979581035   0.486090463   0.038280124
H       -3.362724035   0.126096463   0.602458124
*
