! B3LYP D4 def2-TZVP VeryTightSCF Opt


%pal
   nprocs 8
end

%maxcore 9000

%geom
   MaxIter 600
end

* xyz 0 1
O       -3.1545158370      5.7038722059      0.4683477431                 
H       -3.2144630026      5.0510919106     -0.2746710378                 
H       -4.1245054660      5.7713074117      0.6660781933                 
O       -5.8962766088      2.5383237040      0.9464798385                 
H       -5.0180863935      2.3217457975      1.3311437360                 
H       -6.0551970008      1.7196666523      0.4197937324                 
O       -2.7879604944      3.5223941482     -1.0819705781                 
H       -1.8641690568      3.4827004851     -1.4206871264                 
H       -3.1383671777      2.6734537908     -1.4625623323                 
O       -0.5091523136      6.0226781245      0.5907935014                 
H       -0.4840829091      6.9983116806      0.5755278922                 
H       -1.4966993657      5.9015105848      0.6394634584                 
O        0.3370603506      1.8347651488      0.4107462009                 
H        0.6782718022      2.4888322262      1.0735508363                 
H        0.1672483012      2.4762798815     -0.3209984717                 
O       -3.6223414393      1.0533196927     -1.6020566461                 
H       -3.1620604707      0.2391818388     -1.2946757542                 
H       -4.5453440337      0.8246032720     -1.3484048717                 
O       -5.7628206634      5.2330519692      0.9035758946                 
H       -5.8595897296      4.2468148321      0.8626849050                 
H       -6.6869538549      5.4782643104      1.0824383804                 
O       -3.1694695408      2.9187079726      1.5935365551                 
H       -3.0077286468      3.0616106360      0.6294057924                 
H       -3.2375425293      3.8542373782      1.8734123349                 
O       -0.0483140995      3.9822152154     -1.3150663913                 
H        0.5580277938      4.3620134270     -1.9763499893                 
H       -0.1356114239      4.7370256529     -0.6848874511                 
O        0.2391066106     -0.7163854604     -0.6200327438                 
H        0.2950895204      0.1988903891     -0.2529004759                 
H        1.1739923179     -0.9791663365     -0.5887818526                 
O       -2.4192467617     -1.1537340868     -0.2655379375                 
H       -1.4707303686     -1.2004973560     -0.5516834528                 
H       -2.2619160500     -0.6585765467      0.5822993203                 
O       -6.0914625040      0.1999218020     -0.5501375641                 
H       -5.7295217973     -0.6841104713     -0.2779869825                 
H       -6.8912914577     -0.0959256364     -1.0224128206                 
O       -4.9010078447     -2.1620105136     -0.1504278570                 
H       -3.9580154114     -1.8706523124     -0.2524583521                 
H       -4.7600948908     -3.0627057352      0.1892402975                 
O       -1.8238863352      0.5510989882      1.7185558327                 
H       -1.0048714437      1.0006530478      1.4121759966                 
H       -2.3855222753      1.3424102124      1.8950769309                 
O        0.8645375461      4.0150613223      1.9228451252                 
H        0.4064305008      4.7844450783      1.5110416118                 
H        0.9975235562      4.3365346153      2.8308381432                 

*
